
Gurobi 11.0.0 (linux64) logging started Thu Jan  9 14:41:48 2025

Set parameter LogFile to value "gurobi.log"
Set parameter InfUnbdInfo to value 1
Gurobi Optimizer version 11.0.0 build v11.0.0rc2 (linux64 - "Ubuntu 22.04.4 LTS")

CPU model: AMD EPYC 7V13 64-Core Processor, instruction set [SSE2|AVX|AVX2]
Thread count: 128 physical cores, 128 logical processors, using up to 32 threads

Optimize a model with 57 rows, 236 columns and 181 nonzeros
Model fingerprint: 0xa3014eb0
Model has 172 quadratic constraints
Model has 13 general constraints
Variable types: 51 continuous, 185 integer (0 binary)
Coefficient statistics:
  Matrix range     [1e+00, 2e+01]
  QMatrix range    [1e+00, 2e+02]
  QLMatrix range   [1e+00, 2e+02]
  Objective range  [1e+00, 1e+00]
  Bounds range     [1e+00, 2e+06]
  RHS range        [1e+00, 2e+06]
  QRHS range       [2e+02, 9e+03]
Using branch priorities (all 0).
Presolve added 105 rows and 52 columns
Presolve time: 0.01s
Presolved: 608 rows, 518 columns, 1712 nonzeros
Presolved model has 151 SOS constraint(s)
Presolved model has 45 bilinear constraint(s)
Warning: Model contains variables with very large bounds participating
         in product terms.
         Presolve was not able to compute smaller bounds for these variables.
         Consider bounding these variables or reformulating the model.


Solving non-convex MIQCP

Variable types: 114 continuous, 404 integer (161 binary)

Root relaxation: objective 1.338551e+02, 191 iterations, 0.00 seconds (0.00 work units)

    Nodes    |    Current Node    |     Objective Bounds      |     Work
 Expl Unexpl |  Obj  Depth IntInf | Incumbent    BestBd   Gap | It/Node Time

     0     0  133.85511    0  103          -  133.85511      -     -    0s
     0     0  133.85511    0   95          -  133.85511      -     -    0s
H    0     0                    295462.75000  133.85511   100%     -    0s
     0     0  209.03508    0  170 295462.750  209.03508   100%     -    0s
     0     0  223.36223    0  170 295462.750  223.36223   100%     -    0s
H    0     0                    251383.32086  223.36223   100%     -    0s
H    0     0                    126172.37500  230.43603   100%     -    0s
     0     0  254.50684    0  195 126172.375  254.50684   100%     -    0s
     0     0  257.14657    0  197 126172.375  257.14657   100%     -    0s
H    0     0                    104979.26933  257.14657   100%     -    0s
     0     0  348.34858    0  200 104979.269  348.34858   100%     -    0s
     0     0  499.66336    0  204 104979.269  499.66336   100%     -    0s
H    0     0                    88279.375000  499.66336  99.4%     -    0s
     0     0 1285.67697    0  109 88279.3750 1285.67697  98.5%     -    0s
H    0     0                    67279.437500 1285.67697  98.1%     -    0s
     0     0 2574.67953    0  198 67279.4375 2574.67953  96.2%     -    0s
     0     0 6289.12070    0  200 67279.4375 6289.12070  90.7%     -    0s
     0     0 6630.14074    0  200 67279.4375 6630.14074  90.1%     -    0s
     0     0 7097.93840    0  201 67279.4375 7097.93840  89.5%     -    0s
     0     0 7504.77094    0  201 67279.4375 7504.77094  88.8%     -    0s
     0     0 8257.41305    0  200 67279.4375 8257.41305  87.7%     -    0s
     0     0 8574.67536    0  200 67279.4375 8574.67536  87.3%     -    0s
     0     0 8784.68437    0  199 67279.4375 8784.68437  86.9%     -    0s
     0     0 9410.01325    0  200 67279.4375 9410.01325  86.0%     -    0s
H    0     0                    55463.812500 9410.01325  83.0%     -    0s
     0     0 10550.4452    0  201 55463.8125 10550.4452  81.0%     -    0s
     0     0 10800.8342    0  173 55463.8125 10800.8342  80.5%     -    0s
     0     0 11547.5077    0  173 55463.8125 11547.5077  79.2%     -    0s
     0     0 11792.3461    0  173 55463.8125 11792.3461  78.7%     -    0s
     0     0 12636.0740    0  201 55463.8125 12636.0740  77.2%     -    0s
     0     0 13505.7154    0  172 55463.8125 13505.7154  75.6%     -    0s
     0     0 13685.5921    0  201 55463.8125 13685.5921  75.3%     -    0s
     0     0 14075.4638    0  200 55463.8125 14075.4638  74.6%     -    0s
     0     0 14477.1229    0  217 55463.8125 14477.1229  73.9%     -    0s
     0     0 15123.4636    0  237 55463.8125 15123.4636  72.7%     -    0s
     0     0 15553.6615    0  235 55463.8125 15553.6615  72.0%     -    0s
     0     0 15742.1692    0  250 55463.8125 15742.1692  71.6%     -    0s
     0     0 16306.3152    0  253 55463.8125 16306.3152  70.6%     -    0s
H    0     0                    55429.396795 18862.3842  66.0%     -    0s
     0     0 18862.3842    0  214 55429.3968 18862.3842  66.0%     -    0s
H    0     0                    46736.455732 18862.3842  59.6%     -    0s
     0     0 18862.3842    0   86 46736.4557 18862.3842  59.6%     -    0s
     0     0 18862.3842    0   86 46736.4557 18862.3842  59.6%     -    0s
     0     0 18862.3842    0  134 46736.4557 18862.3842  59.6%     -    1s
     0     0 18862.3842    0  135 46736.4557 18862.3842  59.6%     -    1s
     0     0 18862.3842    0  146 46736.4557 18862.3842  59.6%     -    1s
     0     0 18862.3842    0  145 46736.4557 18862.3842  59.6%     -    1s
     0     0 18862.3842    0  137 46736.4557 18862.3842  59.6%     -    1s
     0     0 18862.3842    0  108 46736.4557 18862.3842  59.6%     -    1s
     0     0 18862.3842    0  116 46736.4557 18862.3842  59.6%     -    1s
     0     0 18862.3842    0  113 46736.4557 18862.3842  59.6%     -    2s
     0     0 18862.3842    0  121 46736.4557 18862.3842  59.6%     -    2s
     0     0 18862.3842    0  128 46736.4557 18862.3842  59.6%     -    2s
     0     0 18862.3842    0  140 46736.4557 18862.3842  59.6%     -    2s
     0     0 18862.3842    0  143 46736.4557 18862.3842  59.6%     -    2s
H    0     0                    46561.205732 18862.3842  59.5%     -    2s
     0     0 18862.3842    0  139 46561.2057 18862.3842  59.5%     -    2s
H    0     0                    45610.442237 18862.3842  58.6%     -    2s
     0     0 18862.3842    0  115 45610.4422 18862.3842  58.6%     -    2s
H    0     0                    44421.778302 18862.3842  57.5%     -    3s
     0     0 18862.3842    0  123 44421.7783 18862.3842  57.5%     -    3s
     0     0 18862.3842    0  121 44421.7783 18862.3842  57.5%     -    3s
     0     0 18862.3842    0  121 44421.7783 18862.3842  57.5%     -    3s
     0     0 18862.3842    0  133 44421.7783 18862.3842  57.5%     -    3s
     0     0 18862.3842    0  133 44421.7783 18862.3842  57.5%     -    3s
     0     0 18862.3842    0  130 44421.7783 18862.3842  57.5%     -    3s
H    0     0                    43886.104788 18862.3842  57.0%     -    4s
     0     0 18862.3842    0  118 43886.1048 18862.3842  57.0%     -    4s
     0     2 18862.3842    0  116 43886.1048 18862.3842  57.0%     -    4s
    15    32 18862.3842    4   67 43886.1048 18862.3842  57.0%  54.8    5s
H   36    62                    43886.103397 18862.3842  57.0%  55.6    5s
H   40    62                    43886.103150 18862.3842  57.0%  56.4    5s
H  479   168                    43848.449116 18862.3842  57.0%  18.3    5s
*  633   177              13    43848.448857 18862.3842  57.0%  17.5    5s
H  872   144                    43572.848072 18862.3842  56.7%  16.3    6s
* 1025   144              23    42745.738304 18862.3842  55.9%  15.6    6s
* 1066    97              20    42363.466203 18862.3842  55.5%  15.6    6s
H 1126    97                    42065.357522 18862.3842  55.2%  15.4    6s
H 1333    47                    42065.356648 18862.3842  55.2%  14.5    6s
* 1387    47              19    40728.449116 18862.3842  53.7%  14.2    6s
* 1487     0              19    39243.466203 39027.2162  0.55%  13.8    6s
* 1491     0              20    39027.216203 39027.2162  0.00%  13.7    6s

Cutting planes:
  Gomory: 3
  Cover: 2
  Implied bound: 81
  Clique: 4
  MIR: 32
  StrongCG: 1
  Flow cover: 1
  Inf proof: 1
  RLT: 23
  Relax-and-lift: 62

Explored 1492 nodes (22455 simplex iterations) in 6.58 seconds (0.43 work units)
Thread count was 32 (of 128 available processors)

Solution count 10: 39027.2 39243.5 40728.4 ... 43848.4

Optimal solution found (tolerance 1.00e-04)
Warning: max constraint violation (6.7261e-04) exceeds tolerance
Warning: max general constraint violation (6.7261e-04) exceeds tolerance
Best objective 3.902721620294e+04, best bound 3.902721620294e+04, gap 0.0000%

Gurobi 11.0.0 (linux64) logging started Fri Jan 10 12:27:41 2025

Set parameter LogFile to value "gurobi.log"
Set parameter InfUnbdInfo to value 1
Gurobi Optimizer version 11.0.0 build v11.0.0rc2 (linux64 - "Ubuntu 22.04.4 LTS")

CPU model: AMD EPYC 7V13 64-Core Processor, instruction set [SSE2|AVX|AVX2]
Thread count: 128 physical cores, 128 logical processors, using up to 32 threads

Optimize a model with 57 rows, 236 columns and 181 nonzeros
Model fingerprint: 0xce76d3a9
Model has 172 quadratic constraints
Model has 13 general constraints
Variable types: 51 continuous, 185 integer (0 binary)
Coefficient statistics:
  Matrix range     [1e+00, 2e+01]
  QMatrix range    [1e+00, 2e+02]
  QLMatrix range   [1e+00, 2e+02]
  Objective range  [1e+00, 1e+00]
  Bounds range     [1e+00, 2e+06]
  RHS range        [1e+00, 2e+06]
  QRHS range       [2e+02, 1e+04]
Using branch priorities (all 0).
Presolve added 105 rows and 52 columns
Presolve time: 0.01s
Presolved: 608 rows, 518 columns, 1712 nonzeros
Presolved model has 151 SOS constraint(s)
Presolved model has 45 bilinear constraint(s)
Warning: Model contains variables with very large bounds participating
         in product terms.
         Presolve was not able to compute smaller bounds for these variables.
         Consider bounding these variables or reformulating the model.


Solving non-convex MIQCP

Variable types: 114 continuous, 404 integer (161 binary)

Root relaxation: objective 1.338551e+02, 191 iterations, 0.00 seconds (0.00 work units)

    Nodes    |    Current Node    |     Objective Bounds      |     Work
 Expl Unexpl |  Obj  Depth IntInf | Incumbent    BestBd   Gap | It/Node Time

     0     0  133.85511    0  103          -  133.85511      -     -    0s
     0     0  133.85511    0   95          -  133.85511      -     -    0s
H    0     0                    295462.75000  133.85511   100%     -    0s
     0     0  209.03508    0  170 295462.750  209.03508   100%     -    0s
     0     0  223.36223    0  170 295462.750  223.36223   100%     -    0s
H    0     0                    251383.32086  223.36223   100%     -    0s
H    0     0                    126172.37500  230.43603   100%     -    0s
     0     0  254.50684    0  195 126172.375  254.50684   100%     -    0s
     0     0  257.14657    0  197 126172.375  257.14657   100%     -    0s
H    0     0                    116268.50242  257.14657   100%     -    0s
H    0     0                    111211.31250  276.22248   100%     -    0s
     0     0  293.10542    0  200 111211.312  293.10542   100%     -    0s
     0     0  294.67751    0  204 111211.312  294.67751   100%     -    0s
     0     0  798.24699    0  199 111211.312  798.24699  99.3%     -    0s
H    0     0                    64039.312500  798.24699  98.8%     -    0s
     0     0 1041.91395    0  228 64039.3125 1041.91395  98.4%     -    0s
     0     0 1968.30827    0  230 64039.3125 1968.30827  96.9%     -    0s
     0     0 6225.56308    0  230 64039.3125 6225.56308  90.3%     -    0s
     0     0 6899.05891    0  229 64039.3125 6899.05891  89.2%     -    0s
H    0     0                    61179.312500 6899.05891  88.7%     -    0s
     0     0 7076.73201    0  230 61179.3125 7076.73201  88.4%     -    0s
     0     0 8162.15096    0  251 61179.3125 8162.15096  86.7%     -    0s
     0     0 8162.15096    0  247 61179.3125 8162.15096  86.7%     -    0s
     0     0 8754.09825    0  247 61179.3125 8754.09825  85.7%     -    0s
     0     0 10725.3844    0  228 61179.3125 10725.3844  82.5%     -    0s
     0     0 11678.1807    0  200 61179.3125 11678.1807  80.9%     -    0s
     0     0 12404.3101    0  200 61179.3125 12404.3101  79.7%     -    0s
H    0     0                    58059.312500 12404.3101  78.6%     -    0s
     0     0 13397.2720    0  200 58059.3125 13397.2720  76.9%     -    0s
H    0     0                    57569.668696 13986.8419  75.7%     -    0s
     0     0 13986.8419    0  199 57569.6687 13986.8419  75.7%     -    0s
     0     0 14267.2430    0  201 57569.6687 14267.2430  75.2%     -    0s
     0     0 14687.9476    0  200 57569.6687 14687.9476  74.5%     -    0s
     0     0 14947.2856    0  199 57569.6687 14947.2856  74.0%     -    0s
     0     0 15278.1925    0  198 57569.6687 15278.1925  73.5%     -    0s
     0     0 15604.5214    0  199 57569.6687 15604.5214  72.9%     -    0s
     0     0 16031.2717    0  227 57569.6687 16031.2717  72.2%     -    0s
H    0     0                    38044.416487 16251.2172  57.3%     -    0s
     0     0 16251.2172    0  223 38044.4165 16251.2172  57.3%     -    0s
     0     0 17427.2851    0  235 38044.4165 17427.2851  54.2%     -    0s
     0     0 20213.6593    0  243 38044.4165 20213.6593  46.9%     -    0s
     0     0 20213.6593    0   86 38044.4165 20213.6593  46.9%     -    1s
     0     0 20213.6593    0   86 38044.4165 20213.6593  46.9%     -    1s
     0     0 20213.6593    0  133 38044.4165 20213.6593  46.9%     -    1s
H    0     0                    38044.291487 20213.6593  46.9%     -    1s
     0     0 20213.6593    0  112 38044.2915 20213.6593  46.9%     -    1s
     0     0 20213.6593    0  127 38044.2915 20213.6593  46.9%     -    1s
     0     0 20213.6593    0  126 38044.2915 20213.6593  46.9%     -    2s
     0     0 20213.6593    0  131 38044.2915 20213.6593  46.9%     -    2s
H    0     0                    32890.731989 20213.6593  38.5%     -    2s
     0     0 20213.6593    0  129 32890.7320 20213.6593  38.5%     -    2s
     0     0 20213.6593    0  135 32890.7320 20213.6593  38.5%     -    2s
     0     0 20213.6593    0  149 32890.7320 20213.6593  38.5%     -    2s
     0     0 20213.6593    0  128 32890.7320 20213.6593  38.5%     -    2s
     0     0 20213.6593    0  137 32890.7320 20213.6593  38.5%     -    2s
     0     0 20213.6593    0  148 32890.7320 20213.6593  38.5%     -    3s
H    0     0                    32890.730512 20213.6593  38.5%     -    3s
     0     0 20213.6593    0  153 32890.7305 20213.6593  38.5%     -    3s
     0     0 20213.6593    0  146 32890.7305 20213.6593  38.5%     -    3s
     0     0 20213.6593    0  149 32890.7305 20213.6593  38.5%     -    3s
     0     0 20213.6593    0  151 32890.7305 20213.6593  38.5%     -    3s
     0     0 20213.6593    0  145 32890.7305 20213.6593  38.5%     -    3s
     0     0 20213.6593    0  160 32890.7305 20213.6593  38.5%     -    3s
     0     0 20213.6593    0  137 32890.7305 20213.6593  38.5%     -    4s
     0     2 20213.6593    0  137 32890.7305 20213.6593  38.5%     -    4s
   567   199 20213.6593    9   66 32890.7305 20213.6593  38.5%  18.9    5s
*  756   169              18    32116.251367 20213.6593  37.1%  17.4    5s
* 1013   132              24    31915.447151 20213.6593  36.7%  16.3    5s
H 1064    59                    30571.501491 20213.6593  33.9%  16.1    5s
* 1210    59              19    30571.501321 20213.6593  33.9%  15.8    5s
H 1272    11                    30571.500963 20213.6593  33.9%  15.5    5s

Cutting planes:
  Gomory: 3
  Cover: 1
  Implied bound: 85
  Clique: 4
  MIR: 28
  StrongCG: 2
  Flow cover: 3
  GUB cover: 1
  RLT: 34
  Relax-and-lift: 70
  BQP: 3

Explored 1359 nodes (22639 simplex iterations) in 6.12 seconds (0.42 work units)
Thread count was 32 (of 128 available processors)

Solution count 10: 30571.5 30571.5 30571.5 ... 57569.7

Optimal solution found (tolerance 1.00e-04)
Warning: max constraint violation (6.7296e-04) exceeds tolerance
Warning: max general constraint violation (6.7296e-04) exceeds tolerance
Best objective 3.057150096306e+04, best bound 3.057150096306e+04, gap 0.0000%
